p cnf 12 50 
-9 11 -10 0
-3 4 11 0
-7 2 8 0
-2 -9 -3 0
7 -1 -5 0
9 -2 -6 0
1 -11 4 0
-1 -6 8 0
-6 -10 7 0
7 -12 -9 0
2 -6 10 0
-12 -3 11 0
11 4 2 0
-9 2 -12 0
-11 6 12 0
-4 7 5 0
12 -5 -6 0
11 -12 6 0
-11 10 6 0
10 -3 -6 0
11 6 2 0
5 4 -10 0
-5 -3 12 0
1 9 -2 0
7 -12 11 0
12 -5 -10 0
-5 4 6 0
11 10 6 0
10 6 11 0
-4 2 -6 0
1 -10 -7 0
-9 -2 -5 0
6 8 1 0
-8 -10 -4 0
-2 1 -11 0
-5 9 6 0
1 9 -3 0
3 9 -6 0
-4 -5 -7 0
12 6 10 0
2 3 11 0
-7 -4 -3 0
-5 1 12 0
6 -10 5 0
11 -5 -6 0
2 -9 8 0
4 10 3 0
8 3 -6 0
6 5 3 0
-12 3 -10 0
